c   #vars: 80   #clauses: 368   #literals: 1046
c 
p cnf 80 368
-1 -2 0
-3 -4 0
-5 -6 0
-7 -8 0
-9 -10 0
-11 -12 0
-13 -14 0
-15 -16 0
-17 -18 0
-19 -20 0
36 37 70 71 0
-21 -22 0
5 6 33 -73 0
9 10 -27 43 0
-25 -26 0
-27 -28 0
44 45 66 67 0
-29 -30 0
-31 -32 0
3 4 40 -55 0
-34 -35 0
-36 -37 0
-38 -39 0
-13 21 22 46 0
-41 -42 0
-44 -45 0
47 -63 77 78 0
19 20 50 -72 0
-48 -49 0
21 22 -48 61 0
-51 -52 0
-53 -54 0
-55 -56 0
-57 -58 0
-59 -60 0
-21 34 35 62 0
36 37 -50 72 0
23 31 32 -48 0
-64 -65 0
-66 -67 0
3 4 48 49 0
-68 -69 0
1 2 66 67 0
-70 -71 0
3 4 73 74 0
-73 -74 0
47 -50 63 -78 0
9 10 55 56 0
3 4 64 65 0
-75 -76 0
-77 -78 0
5 6 66 67 0
-79 -80 0
9 10 51 52 0
-1 -29 0
-2 -30 0
-36 50 -63 72 0
-1 -34 0
-2 -35 0
38 39 70 71 0
-1 -66 0
-2 -67 0
31 32 73 74 0
-1 -75 0
-2 -76 0
25 26 53 54 0
-1 -77 0
-2 -78 0
3 4 -21 62 0
-3 -34 0
-4 -35 0
-21 48 49 61 0
-7 21 22 46 0
-4 -40 0
5 6 36 37 0
-3 -48 0
-4 -49 0
7 8 68 69 0
-3 -53 0
-4 -54 0
-25 36 37 72 0
-4 -62 0
7 8 48 49 0
-3 -64 0
-4 -65 0
7 8 75 76 0
-3 -73 0
-4 -74 0
5 6 38 39 0
-3 -79 0
-4 -80 0
31 32 64 65 0
3 4 -7 40 0
-6 -33 0
31 32 55 56 0
-5 -36 0
-6 -37 0
-15 -25 -26 63 0
-5 -38 0
-6 -39 0
15 16 70 71 0
-5 -66 0
-6 -67 0
11 12 31 32 0
-5 -68 0
-6 -69 0
-13 33 73 74 0
-5 -73 0
-6 -74 0
-17 27 28 43 0
-7 -29 0
-8 -30 0
7 8 -13 46 0
13 14 -21 46 0
-8 -40 0
44 45 79 80 0
-26 47 77 78 0
-8 -46 0
36 37 77 78 0
-7 -48 0
-8 -49 0
-7 -57 0
-8 -58 0
23 -31 55 56 0
-7 -59 0
-8 -60 0
3 4 34 35 0
-7 -68 0
-8 -69 0
1 2 77 78 0
-7 -75 0
-8 -76 0
13 14 70 71 0
-10 -43 0
51 52 59 60 0
-9 -51 0
-10 -52 0
13 14 51 52 0
-9 -55 0
-10 -56 0
15 16 -47 63 0
-3 34 35 62 0
-10 -61 0
-26 47 -50 63 0
-9 -64 0
-10 -65 0
44 45 73 74 0
-11 -31 0
-12 -32 0
53 54 66 67 0
-11 -41 0
-12 -42 0
24 -38 41 42 0
-11 -57 0
-12 -58 0
11 12 41 42 0
-11 -64 0
-12 -65 0
3 4 53 54 0
-7 40 55 56 0
-14 -33 0
36 37 64 65 0
25 26 47 -78 0
-14 -46 0
44 45 59 60 0
-13 -51 0
-14 -52 0
-13 -57 0
-14 -58 0
7 8 59 60 0
-13 -70 0
-14 -71 0
-20 -47 50 63 0
24 41 42 -68 0
-15 -29 0
-16 -30 0
3 4 79 80 0
-15 -41 0
-16 -42 0
21 22 53 54 0
24 -41 68 69 0
-16 -63 0
-17 43 57 58 0
-15 -70 0
-16 -71 0
11 12 57 58 0
-17 -36 0
-18 -37 0
17 18 36 37 0
23 48 49 -55 0
-18 -43 0
-20 -36 50 72 0
-17 -53 0
-18 -54 0
-25 50 -63 72 0
-19 -29 0
-20 -30 0
38 39 73 74 0
-19 -50 0
-9 21 22 61 0
3 4 -34 62 0
-19 -73 0
-20 -74 0
-15 47 63 -78 0
-19 -75 0
-20 -76 0
17 18 53 54 0
-19 -79 0
-20 -80 0
9 10 43 -57 0
23 -48 55 56 0
5 6 73 74 0
25 26 47 -63 0
-22 -46 0
-21 -53 0
-22 -54 0
27 28 68 69 0
21 22 -34 62 0
-22 -61 0
41 42 68 69 0
25 26 -50 72 0
-22 -62 0
-47 50 63 -72 0
-21 -79 0
-22 -80 0
5 6 -13 33 0
-23 -32 0
-3 7 8 40 0
13 14 33 -73 0
-23 -49 0
-5 13 14 33 0
-23 -56 0
9 10 -17 43 0
-24 -39 0
27 28 43 -57 0
17 18 43 -57 0
-24 -42 0
17 18 -27 43 0
-24 -69 0
11 12 64 65 0
24 38 39 -68 0
-20 -25 50 72 0
-15 -20 50 63 0
-25 -36 0
-26 -37 0
19 20 73 74 0
-25 -47 0
19 20 50 -63 0
27 28 59 60 0
-25 -53 0
-26 -54 0
1 2 75 76 0
-26 -72 0
19 20 29 30 0
23 -31 48 49 0
-28 -43 0
-9 43 57 58 0
-27 -59 0
-28 -60 0
1 2 29 30 0
-27 -64 0
-28 -65 0
15 16 29 30 0
-27 -68 0
-28 -69 0
7 8 -21 46 0
-27 -73 0
-28 -74 0
-25 -26 -47 63 0
-15 50 63 -72 0
15 16 41 42 0
-29 -68 0
-30 -69 0
-31 -55 0
-32 -56 0
34 35 77 78 0
-31 -64 0
-32 -65 0
34 35 55 56 0
-31 -68 0
-32 -69 0
1 2 34 35 0
-31 -73 0
-32 -74 0
7 8 57 58 0
-3 40 55 56 0
-33 -74 0
13 14 57 58 0
-34 -55 0
-35 -56 0
-15 -26 47 63 0
25 26 -36 72 0
-35 -62 0
-5 33 73 74 0
-34 -64 0
-35 -65 0
21 22 79 80 0
-34 -77 0
-35 -78 0
31 32 68 69 0
-36 -64 0
-37 -65 0
-9 27 28 43 0
-36 -70 0
-37 -71 0
-37 -72 0
19 20 79 80 0
-36 -77 0
-37 -78 0
-27 43 57 58 0
-38 -70 0
-39 -71 0
-38 -73 0
-39 -74 0
53 54 79 80 0
-7 13 14 46 0
-40 -56 0
-41 -68 0
-42 -69 0
23 31 32 -55 0
-43 -58 0
15 16 -50 63 0
5 6 68 69 0
24 38 39 -41 0
9 10 64 65 0
-44 -59 0
-45 -60 0
-9 48 49 61 0
-44 -66 0
-45 -67 0
-25 -26 -50 63 0
-44 -73 0
-45 -74 0
27 28 64 65 0
-44 -79 0
-45 -80 0
27 28 73 74 0
24 -38 68 69 0
48 49 64 65 0
-47 -77 0
7 8 29 30 0
-3 21 22 62 0
-49 -61 0
25 26 36 37 0
-48 -64 0
-49 -65 0
34 35 64 65 0
-9 17 18 43 0
9 10 -48 61 0
9 10 -21 61 0
53 54 57 58 0
-51 -59 0
-52 -60 0
53 54 75 76 0
-51 -77 0
-52 -78 0
19 20 75 76 0
-53 -57 0
-54 -58 0
29 30 68 69 0
-53 -66 0
-54 -67 0
51 52 77 78 0
-53 -75 0
-54 -76 0
7 8 40 -55 0
-53 -79 0
-54 -80 0
